106
107
96
87
72
113
79
76
89
63
102
136
78
72
86
108
70
101
106
88
86
102
105
72
109
64
101
66
81
105
86
96
68
114
90
97
88
94
75
95
133
86
108
123
82
129
0
133
67
89
82
111
87
84
87
119
150
92
136
101
69
75
69
95
87
101
88
146
87
93
89
108
94
88
76
105
105
84
73
0
65
69
119
0
90
70
94
148
113
84
70
86
103
93
101
84
95
136
68
85
